c preprocessed version of BN_91, 39 vertices, 401 edges
p td 39 401
1 0
23 0
1 2
23 1
3 2
14 2
15 2
21 2
4 3
14 3
10 3
15 3
11 3
21 3
5 4
10 4
15 4
11 4
20 4
6 5
11 5
7 5
22 5
21 5
7 6
22 6
21 6
8 7
16 7
19 7
22 7
8 9
8 12
8 13
8 14
8 15
8 23
17 8
8 18
8 16
8 19
8 21
8 20
8 22
9 10
9 14
9 13
9 15
12 9
18 9
11 10
10 13
10 15
11 12
16 11
18 11
20 11
12 13
16 12
18 12
13 14
13 15
18 13
15 14
21 14
16 15
20 15
21 15
17 16
16 20
16 19
16 22
16 21
16 18
17 18
17 19
17 21
17 20
17 22
19 18
18 21
18 20
18 22
19 20
19 22
19 21
20 21
20 22
22 21
24 38
24 9
24 10
24 12
24 13
24 30
24 31
24 32
24 34
24 37
24 25
24 26
24 29
24 33
24 17
24 27
24 28
24 8
24 19
24 35
24 18
24 36
24 21
25 3
25 4
25 5
25 6
25 7
25 38
25 9
25 10
25 11
25 12
25 13
25 15
25 30
25 31
25 32
25 34
25 37
25 29
25 26
25 33
25 27
25 28
25 8
25 16
25 19
25 35
25 18
25 36
25 20
25 22
25 21
26 7
26 38
26 9
26 10
26 11
26 12
26 13
26 15
26 30
26 31
26 32
26 34
26 37
26 29
26 33
26 27
26 28
26 16
26 19
26 35
26 36
26 20
26 22
26 21
27 17
27 0
27 4
27 8
27 23
27 9
27 13
27 15
27 36
27 38
27 30
27 32
27 34
27 18
27 37
27 31
27 28
27 29
27 16
27 19
27 33
27 21
27 20
27 22
27 35
28 17
28 3
28 4
28 5
28 29
28 35
28 8
28 20
28 16
28 9
28 13
28 19
28 22
28 6
28 36
28 38
28 30
28 32
28 33
28 21
28 34
28 18
28 37
28 31
29 38
29 0
29 2
29 3
29 4
29 5
29 6
29 7
29 9
29 10
29 11
29 13
29 14
29 15
29 30
29 31
29 32
29 34
29 37
29 33
29 8
29 16
29 19
29 35
29 36
29 20
29 22
29 21
30 38
30 5
30 6
30 7
30 9
30 10
30 12
30 13
30 15
30 31
30 37
30 34
30 32
30 33
30 17
30 8
30 16
30 19
30 35
30 18
30 36
30 22
30 21
31 38
31 1
31 3
31 4
31 7
31 9
31 10
31 11
31 12
31 13
31 15
31 32
31 34
31 37
31 33
31 17
31 8
31 16
31 19
31 35
31 18
31 36
31 20
31 22
31 21
32 38
32 0
32 1
32 9
32 10
32 12
32 13
32 23
32 34
32 37
32 33
32 17
32 8
32 19
32 35
32 18
32 36
32 21
33 38
33 2
33 3
33 7
33 9
33 11
33 12
33 13
33 14
33 15
33 34
33 37
33 17
33 8
33 16
33 19
33 35
33 18
33 36
33 20
33 22
33 21
34 38
34 9
34 13
34 37
34 17
34 16
34 19
34 35
34 18
34 36
34 21
35 38
35 17
35 8
35 16
35 19
35 21
35 20
35 22
35 23
35 7
35 36
35 18
35 37
36 38
36 17
36 8
36 16
36 19
36 18
36 21
36 4
36 37
36 20
36 22
37 38
37 3
37 4
37 5
37 6
37 7
37 9
37 10
37 11
37 12
37 13
37 15
37 17
37 8
37 16
37 19
37 18
37 20
37 22
37 21
38 0
38 1
38 2
38 7
38 10
38 11
38 12
38 23
38 17
38 16
38 19
38 18
38 22
38 21
